NAME: CMT11_4
TYPE: CVRP
COMMENT: 1042.11 - Cluster Nr.4
DIMENSION: 21
CAPACITY: 200
EDGE_WEIGHT_TYPE: EUC_2D
NODE_COORD_TYPE: TWOD_COORDS
NODE_COORD_SECTION: 
2 78 9
9 85 1
12 76 6
8 73 6
3 76 13
18 79 11
20 82 7
15 79 5
19 87 7
13 78 3
21 84 9
14 73 8
11 82 3
1 76 10
10 84 5
16 10 45
5 90 15
7 84 3
4 87 5
17 79 3
6 85 8
DEPOT_SECTION: 
16
-1
DEMAND_SECTION: 
18 15
6 4
7 11
12 17
2 13
8 13
14 18
15 16
16 0
19 4
1 4
20 5
17 8
10 10
5 9
13 12
21 3
11 6
4 2
9 7
3 7
EOF
